interdiction/MCDM/NO_CORR/GEN_FROM_60/12_ITEMS_1000_GEN/K5012W03.KNP.mps
NAME          BLANK   
ROWS
 N  OBJROW
 L  R0000000
COLUMNS
    C0000000  OBJROW     -420.         R0000000  251.        
    C0000001  OBJROW     -680.         R0000000  269.        
    C0000002  OBJROW     -2.           R0000000  197.        
    C0000003  OBJROW     -531.         R0000000  958.        
    C0000004  OBJROW     -455.         R0000000  828.        
    C0000005  OBJROW     -743.         R0000000  580.        
    C0000006  OBJROW     -331.         R0000000  395.        
    C0000007  OBJROW     -420.         R0000000  429.        
    C0000008  OBJROW     -847.         R0000000  28.         
    C0000009  OBJROW     -98.          R0000000  718.        
    C0000010  OBJROW     -837.         R0000000  461.        
    C0000011  OBJROW     -888.         R0000000  888.        
RHS
    RHS       R0000000  13865.      
BOUNDS
 BV BOUND     C0000000  1.          
 BV BOUND     C0000001  1.          
 BV BOUND     C0000002  1.          
 BV BOUND     C0000003  1.          
 BV BOUND     C0000004  1.          
 BV BOUND     C0000005  1.          
 BV BOUND     C0000006  1.          
 BV BOUND     C0000007  1.          
 BV BOUND     C0000008  1.          
 BV BOUND     C0000009  1.          
 BV BOUND     C0000010  1.          
 BV BOUND     C0000011  1.          
ENDATA
