interdiction/MCDM/NO_CORR/GEN_FROM_60/12_ITEMS_1000_GEN/K5012W03.KNP.txt
N 12
M 13
LC 12
LC 13
LC 14
LC 15
LC 16
LC 17
LC 18
LC 19
LC 20
LC 21
LC 22
LC 23
LR 1
LR 2
LR 3
LR 4
LR 5
LR 6
LR 7
LR 8
LR 9
LR 10
LR 11
LR 12
LR 13
LO -420
LO -680
LO -2
LO -531
LO -455
LO -743
LO -331
LO -420
LO -847
LO -98
LO -837
LO -888
OS 1
IC 47
IC 931
IC 914
IC 576
IC 761
IC 899
IC 190
IC 734
IC 476
IC 631
IC 34
IC 695
IB 3444
